90 4005
1 2 189
1 3 40
1 4 146
1 5 203
1 6 235
1 7 130
1 8 72
1 9 32
1 10 98
1 11 59
1 12 130
1 13 114
1 14 150
1 15 215
1 16 120
1 17 176
1 18 258
1 19 107
1 20 244
1 21 168
1 22 200
1 23 204
1 24 193
1 25 248
1 26 80
1 27 92
1 28 23
1 29 117
1 30 63
1 31 16
1 32 61
1 33 209
1 34 160
1 35 16
1 36 158
1 37 140
1 38 58
1 39 214
1 40 127
1 41 61
1 42 128
1 43 263
1 44 239
1 45 240
1 46 30
1 47 158
1 48 250
1 49 259
1 50 164
1 51 50
1 52 46
1 53 53
1 54 159
1 55 118
1 56 99
1 57 244
1 58 159
1 59 6
1 60 209
1 61 208
1 62 229
1 63 192
1 64 100
1 65 69
1 66 82
1 67 28
1 68 82
1 69 47
1 70 87
1 71 67
1 72 134
1 73 159
1 74 197
1 75 209
1 76 220
1 77 201
1 78 148
1 79 137
1 80 23
1 81 63
1 82 159
1 83 164
1 84 95
1 85 197
1 86 28
1 87 236
1 88 257
1 89 39
1 90 173
2 3 161
2 4 49
2 5 101
2 6 18
2 7 99
2 8 54
2 9 0
2 10 197
2 11 201
2 12 50
2 13 230
2 14 170
2 15 83
2 16 75
2 17 97
2 18 16
2 19 241
2 20 98
2 21 41
2 22 111
2 23 44
2 24 40
2 25 21
2 26 257
2 27 233
2 28 126
2 29 188
2 30 27
2 31 205
2 32 161
2 33 195
2 34 152
2 35 88
2 36 13
2 37 90
2 38 210
2 39 156
2 40 42
2 41 89
2 42 163
2 43 253
2 44 25
2 45 109
2 46 28
2 47 163
2 48 141
2 49 63
2 50 109
2 51 92
2 52 79
2 53 263
2 54 178
2 55 75
2 56 254
2 57 208
2 58 181
2 59 160
2 60 93
2 61 146
2 62 231
2 63 214
2 64 256
2 65 49
2 66 126
2 67 240
2 68 95
2 69 24
2 70 148
2 71 164
2 72 57
2 73 187
2 74 22
2 75 238
2 76 262
2 77 178
2 78 188
2 79 15
2 80 192
2 81 148
2 82 141
2 83 182
2 84 2
2 85 122
2 86 203
2 87 192
2 88 200
2 89 123
2 90 35
3 4 27
3 5 225
3 6 241
3 7 60
3 8 101
3 9 8
3 10 22
3 11 82
3 12 70
3 13 80
3 14 187
3 15 201
3 16 162
3 17 194
3 18 233
3 19 123
3 20 212
3 21 40
3 22 60
3 23 237
3 24 68
3 25 1
3 26 259
3 27 269
3 28 68
3 29 128
3 30 136
3 31 114
3 32 146
3 33 109
3 34 236
3 35 16
3 36 196
3 37 26
3 38 23
3 39 123
3 40 78
3 41 126
3 42 151
3 43 258
3 44 255
3 45 149
3 46 20
3 47 51
3 48 210
3 49 124
3 50 64
3 51 269
3 52 83
3 53 162
3 54 125
3 55 11
3 56 177
3 57 32
3 58 162
3 59 14
3 60 67
3 61 102
3 62 235
3 63 126
3 64 121
3 65 26
3 66 200
3 67 103
3 68 33
3 69 176
3 70 257
3 71 128
3 72 182
3 73 52
3 74 263
3 75 164
3 76 114
3 77 240
3 78 88
3 79 159
3 80 175
3 81 251
3 82 225
3 83 175
3 84 37
3 85 169
3 86 259
3 87 137
3 88 23
3 89 184
3 90 61
4 5 11
4 6 257
4 7 86
4 8 142
4 9 119
4 10 63
4 11 29
4 12 150
4 13 189
4 14 237
4 15 14
4 16 33
4 17 43
4 18 131
4 19 206
4 20 170
4 21 31
4 22 140
4 23 70
4 24 228
4 25 162
4 26 139
4 27 267
4 28 228
4 29 178
4 30 51
4 31 5
4 32 58
4 33 98
4 34 32
4 35 213
4 36 66
4 37 76
4 38 39
4 39 111
4 40 178
4 41 209
4 42 15
4 43 229
4 44 231
4 45 191
4 46 250
4 47 64
4 48 214
4 49 121
4 50 74
4 51 124
4 52 87
4 53 152
4 54 186
4 55 245
4 56 191
4 57 159
4 58 171
4 59 208
4 60 13
4 61 130
4 62 76
4 63 255
4 64 194
4 65 160
4 66 113
4 67 226
4 68 7
4 69 224
4 70 35
4 71 116
4 72 115
4 73 165
4 74 174
4 75 199
4 76 189
4 77 174
4 78 238
4 79 87
4 80 209
4 81 31
4 82 6
4 83 37
4 84 60
4 85 203
4 86 110
4 87 143
4 88 79
4 89 29
4 90 153
5 6 32
5 7 245
5 8 21
5 9 29
5 10 240
5 11 218
5 12 48
5 13 238
5 14 4
5 15 126
5 16 135
5 17 121
5 18 180
5 19 236
5 20 17
5 21 269
5 22 63
5 23 5
5 24 201
5 25 42
5 26 215
5 27 11
5 28 191
5 29 49
5 30 267
5 31 27
5 32 24
5 33 148
5 34 50
5 35 69
5 36 8
5 37 162
5 38 242
5 39 184
5 40 165
5 41 181
5 42 244
5 43 192
5 44 19
5 45 205
5 46 196
5 47 246
5 48 222
5 49 143
5 50 81
5 51 11
5 52 211
5 53 91
5 54 75
5 55 149
5 56 26
5 57 43
5 58 267
5 59 142
5 60 203
5 61 50
5 62 178
5 63 252
5 64 253
5 65 144
5 66 207
5 67 221
5 68 17
5 69 14
5 70 19
5 71 41
5 72 151
5 73 125
5 74 116
5 75 110
5 76 33
5 77 32
5 78 135
5 79 7
5 80 190
5 81 258
5 82 117
5 83 95
5 84 143
5 85 69
5 86 175
5 87 70
5 88 133
5 89 147
5 90 73
6 7 266
6 8 238
6 9 119
6 10 245
6 11 209
6 12 172
6 13 171
6 14 214
6 15 206
6 16 241
6 17 269
6 18 5
6 19 41
6 20 113
6 21 217
6 22 227
6 23 255
6 24 241
6 25 144
6 26 75
6 27 256
6 28 92
6 29 224
6 30 84
6 31 77
6 32 178
6 33 50
6 34 73
6 35 155
6 36 215
6 37 184
6 38 134
6 39 87
6 40 127
6 41 188
6 42 122
6 43 83
6 44 118
6 45 263
6 46 215
6 47 28
6 48 84
6 49 208
6 50 48
6 51 81
6 52 104
6 53 268
6 54 253
6 55 29
6 56 39
6 57 261
6 58 239
6 59 242
6 60 16
6 61 262
6 62 75
6 63 196
6 64 205
6 65 20
6 66 54
6 67 235
6 68 108
6 69 100
6 70 242
6 71 16
6 72 191
6 73 219
6 74 148
6 75 248
6 76 209
6 77 47
6 78 16
6 79 8
6 80 57
6 81 207
6 82 11
6 83 58
6 84 252
6 85 74
6 86 171
6 87 194
6 88 11
6 89 162
6 90 175
7 8 242
7 9 172
7 10 106
7 11 252
7 12 96
7 13 107
7 14 177
7 15 134
7 16 160
7 17 24
7 18 105
7 19 13
7 20 113
7 21 23
7 22 53
7 23 188
7 24 62
7 25 229
7 26 237
7 27 27
7 28 267
7 29 187
7 30 19
7 31 268
7 32 77
7 33 12
7 34 128
7 35 101
7 36 4
7 37 247
7 38 120
7 39 163
7 40 223
7 41 139
7 42 64
7 43 15
7 44 127
7 45 265
7 46 106
7 47 21
7 48 60
7 49 146
7 50 207
7 51 162
7 52 128
7 53 208
7 54 88
7 55 219
7 56 208
7 57 27
7 58 136
7 59 150
7 60 260
7 61 86
7 62 125
7 63 249
7 64 107
7 65 173
7 66 39
7 67 106
7 68 242
7 69 86
7 70 161
7 71 262
7 72 159
7 73 111
7 74 34
7 75 199
7 76 48
7 77 227
7 78 176
7 79 77
7 80 218
7 81 227
7 82 8
7 83 32
7 84 247
7 85 107
7 86 64
7 87 201
7 88 227
7 89 127
7 90 259
8 9 43
8 10 156
8 11 262
8 12 176
8 13 241
8 14 116
8 15 247
8 16 37
8 17 196
8 18 132
8 19 95
8 20 20
8 21 22
8 22 96
8 23 262
8 24 198
8 25 245
8 26 175
8 27 142
8 28 41
8 29 208
8 30 193
8 31 64
8 32 186
8 33 237
8 34 243
8 35 143
8 36 168
8 37 177
8 38 193
8 39 222
8 40 28
8 41 118
8 42 42
8 43 151
8 44 115
8 45 225
8 46 247
8 47 87
8 48 210
8 49 31
8 50 89
8 51 194
8 52 111
8 53 158
8 54 119
8 55 251
8 56 40
8 57 234
8 58 156
8 59 86
8 60 222
8 61 224
8 62 160
8 63 110
8 64 120
8 65 174
8 66 94
8 67 179
8 68 250
8 69 190
8 70 104
8 71 254
8 72 229
8 73 60
8 74 25
8 75 10
8 76 42
8 77 66
8 78 44
8 79 195
8 80 90
8 81 108
8 82 2
8 83 94
8 84 268
8 85 78
8 86 10
8 87 186
8 88 86
8 89 5
8 90 37
9 10 207
9 11 116
9 12 251
9 13 227
9 14 192
9 15 161
9 16 223
9 17 78
9 18 148
9 19 5
9 20 259
9 21 51
9 22 46
9 23 146
9 24 48
9 25 118
9 26 48
9 27 60
9 28 26
9 29 189
9 30 53
9 31 22
9 32 174
9 33 60
9 34 146
9 35 44
9 36 173
9 37 263
9 38 228
9 39 164
9 40 162
9 41 259
9 42 264
9 43 97
9 44 248
9 45 119
9 46 205
9 47 201
9 48 31
9 49 129
9 50 77
9 51 108
9 52 101
9 53 123
9 54 90
9 55 32
9 56 250
9 57 112
9 58 62
9 59 161
9 60 153
9 61 196
9 62 153
9 63 175
9 64 113
9 65 127
9 66 27
9 67 250
9 68 268
9 69 183
9 70 41
9 71 125
9 72 31
9 73 221
9 74 53
9 75 97
9 76 200
9 77 231
9 78 117
9 79 53
9 80 122
9 81 90
9 82 138
9 83 130
9 84 185
9 85 252
9 86 38
9 87 259
9 88 8
9 89 101
9 90 261
10 11 237
10 12 242
10 13 73
10 14 68
10 15 34
10 16 203
10 17 261
10 18 128
10 19 57
10 20 96
10 21 206
10 22 197
10 23 3
10 24 81
10 25 38
10 26 220
10 27 66
10 28 32
10 29 122
10 30 229
10 31 252
10 32 95
10 33 245
10 34 45
10 35 56
10 36 110
10 37 8
10 38 108
10 39 115
10 40 225
10 41 215
10 42 80
10 43 87
10 44 97
10 45 182
10 46 8
10 47 185
10 48 58
10 49 212
10 50 82
10 51 167
10 52 261
10 53 260
10 54 81
10 55 24
10 56 70
10 57 102
10 58 183
10 59 259
10 60 235
10 61 189
10 62 132
10 63 216
10 64 255
10 65 152
10 66 176
10 67 99
10 68 183
10 69 195
10 70 115
10 71 36
10 72 1
10 73 102
10 74 13
10 75 140
10 76 20
10 77 232
10 78 174
10 79 209
10 80 31
10 81 77
10 82 228
10 83 130
10 84 79
10 85 36
10 86 167
10 87 213
10 88 139
10 89 207
10 90 80
11 12 205
11 13 76
11 14 220
11 15 80
11 16 37
11 17 201
11 18 264
11 19 43
11 20 147
11 21 150
11 22 13
11 23 120
11 24 237
11 25 161
11 26 27
11 27 256
11 28 57
11 29 222
11 30 64
11 31 179
11 32 96
11 33 79
11 34 85
11 35 27
11 36 46
11 37 138
11 38 38
11 39 201
11 40 2
11 41 109
11 42 242
11 43 102
11 44 7
11 45 28
11 46 191
11 47 6
11 48 234
11 49 104
11 50 212
11 51 117
11 52 25
11 53 60
11 54 92
11 55 50
11 56 157
11 57 52
11 58 207
11 59 183
11 60 95
11 61 133
11 62 253
11 63 213
11 64 120
11 65 50
11 66 104
11 67 45
11 68 238
11 69 4
11 70 151
11 71 221
11 72 92
11 73 126
11 74 114
11 75 108
11 76 187
11 77 218
11 78 266
11 79 177
11 80 52
11 81 124
11 82 152
11 83 156
11 84 232
11 85 155
11 86 3
11 87 125
11 88 47
11 89 61
11 90 243
12 13 54
12 14 269
12 15 128
12 16 200
12 17 29
12 18 144
12 19 77
12 20 28
12 21 137
12 22 143
12 23 139
12 24 86
12 25 167
12 26 206
12 27 248
12 28 247
12 29 14
12 30 122
12 31 6
12 32 139
12 33 108
12 34 176
12 35 52
12 36 78
12 37 247
12 38 99
12 39 245
12 40 123
12 41 68
12 42 2
12 43 54
12 44 44
12 45 226
12 46 51
12 47 80
12 48 258
12 49 162
12 50 59
12 51 101
12 52 79
12 53 242
12 54 255
12 55 58
12 56 89
12 57 79
12 58 55
12 59 192
12 60 55
12 61 134
12 62 132
12 63 119
12 64 140
12 65 181
12 66 26
12 67 202
12 68 112
12 69 97
12 70 33
12 71 207
12 72 177
12 73 251
12 74 248
12 75 53
12 76 109
12 77 239
12 78 7
12 79 65
12 80 206
12 81 36
12 82 68
12 83 189
12 84 101
12 85 1
12 86 29
12 87 4
12 88 93
12 89 18
12 90 188
13 14 43
13 15 97
13 16 17
13 17 102
13 18 44
13 19 172
13 20 216
13 21 10
13 22 58
13 23 220
13 24 162
13 25 177
13 26 201
13 27 76
13 28 199
13 29 151
13 30 199
13 31 50
13 32 220
13 33 266
13 34 255
13 35 129
13 36 146
13 37 88
13 38 196
13 39 148
13 40 118
13 41 107
13 42 225
13 43 247
13 44 138
13 45 268
13 46 109
13 47 259
13 48 0
13 49 52
13 50 107
13 51 155
13 52 4
13 53 196
13 54 27
13 55 259
13 56 258
13 57 39
13 58 122
13 59 216
13 60 68
13 61 221
13 62 33
13 63 245
13 64 222
13 65 38
13 66 61
13 67 71
13 68 53
13 69 55
13 70 258
13 71 226
13 72 165
13 73 91
13 74 128
13 75 28
13 76 246
13 77 22
13 78 113
13 79 164
13 80 189
13 81 26
13 82 27
13 83 9
13 84 201
13 85 153
13 86 41
13 87 155
13 88 137
13 89 34
13 90 68
14 15 226
14 16 66
14 17 10
14 18 129
14 19 59
14 20 77
14 21 244
14 22 127
14 23 241
14 24 135
14 25 23
14 26 32
14 27 29
14 28 186
14 29 256
14 30 193
14 31 84
14 32 192
14 33 229
14 34 243
14 35 5
14 36 125
14 37 212
14 38 1
14 39 52
14 40 72
14 41 171
14 42 151
14 43 242
14 44 121
14 45 235
14 46 44
14 47 98
14 48 254
14 49 147
14 50 173
14 51 56
14 52 82
14 53 234
14 54 69
14 55 40
14 56 221
14 57 25
14 58 9
14 59 70
14 60 157
14 61 34
14 62 222
14 63 30
14 64 168
14 65 98
14 66 83
14 67 169
14 68 81
14 69 117
14 70 252
14 71 249
14 72 77
14 73 188
14 74 260
14 75 64
14 76 221
14 77 28
14 78 26
14 79 269
14 80 49
14 81 142
14 82 73
14 83 146
14 84 12
14 85 76
14 86 257
14 87 244
14 88 238
14 89 19
14 90 154
15 16 76
15 17 105
15 18 43
15 19 170
15 20 127
15 21 242
15 22 246
15 23 142
15 24 235
15 25 257
15 26 118
15 27 117
15 28 134
15 29 120
15 30 247
15 31 202
15 32 222
15 33 119
15 34 35
15 35 198
15 36 62
15 37 78
15 38 225
15 39 19
15 40 175
15 41 226
15 42 178
15 43 38
15 44 106
15 45 75
15 46 223
15 47 193
15 48 235
15 49 109
15 50 51
15 51 220
15 52 199
15 53 126
15 54 224
15 55 79
15 56 115
15 57 99
15 58 15
15 59 220
15 60 146
15 61 266
15 62 189
15 63 72
15 64 179
15 65 146
15 66 76
15 67 133
15 68 105
15 69 88
15 70 265
15 71 11
15 72 41
15 73 27
15 74 191
15 75 160
15 76 254
15 77 185
15 78 194
15 79 148
15 80 159
15 81 154
15 82 242
15 83 9
15 84 255
15 85 6
15 86 38
15 87 76
15 88 103
15 89 154
15 90 121
16 17 140
16 18 59
16 19 169
16 20 128
16 21 218
16 22 81
16 23 115
16 24 75
16 25 56
16 26 190
16 27 265
16 28 187
16 29 125
16 30 238
16 31 221
16 32 72
16 33 68
16 34 179
16 35 193
16 36 124
16 37 152
16 38 38
16 39 165
16 40 215
16 41 36
16 42 69
16 43 67
16 44 123
16 45 0
16 46 70
16 47 111
16 48 60
16 49 95
16 50 121
16 51 166
16 52 65
16 53 19
16 54 217
16 55 21
16 56 14
16 57 198
16 58 136
16 59 170
16 60 61
16 61 138
16 62 155
16 63 169
16 64 20
16 65 214
16 66 101
16 67 191
16 68 62
16 69 181
16 70 240
16 71 55
16 72 245
16 73 145
16 74 81
16 75 105
16 76 84
16 77 150
16 78 37
16 79 70
16 80 178
16 81 265
16 82 82
16 83 93
16 84 2
16 85 169
16 86 204
16 87 124
16 88 22
16 89 8
16 90 68
17 18 207
17 19 153
17 20 60
17 21 159
17 22 236
17 23 95
17 24 117
17 25 228
17 26 22
17 27 252
17 28 105
17 29 53
17 30 219
17 31 88
17 32 26
17 33 153
17 34 70
17 35 14
17 36 119
17 37 156
17 38 44
17 39 95
17 40 181
17 41 105
17 42 19
17 43 52
17 44 14
17 45 251
17 46 208
17 47 100
17 48 224
17 49 26
17 50 94
17 51 84
17 52 195
17 53 162
17 54 2
17 55 146
17 56 188
17 57 45
17 58 82
17 59 251
17 60 27
17 61 80
17 62 9
17 63 34
17 64 134
17 65 207
17 66 133
17 67 137
17 68 199
17 69 30
17 70 10
17 71 18
17 72 26
17 73 32
17 74 49
17 75 220
17 76 39
17 77 33
17 78 123
17 79 221
17 80 165
17 81 179
17 82 217
17 83 77
17 84 142
17 85 12
17 86 194
17 87 9
17 88 123
17 89 34
17 90 80
18 19 6
18 20 101
18 21 33
18 22 234
18 23 55
18 24 24
18 25 72
18 26 17
18 27 211
18 28 72
18 29 56
18 30 178
18 31 187
18 32 67
18 33 241
18 34 167
18 35 189
18 36 59
18 37 146
18 38 245
18 39 167
18 40 65
18 41 81
18 42 193
18 43 31
18 44 70
18 45 130
18 46 164
18 47 178
18 48 236
18 49 78
18 50 72
18 51 163
18 52 219
18 53 178
18 54 223
18 55 244
18 56 156
18 57 174
18 58 157
18 59 87
18 60 181
18 61 85
18 62 237
18 63 256
18 64 8
18 65 240
18 66 158
18 67 182
18 68 100
18 69 83
18 70 64
18 71 77
18 72 242
18 73 252
18 74 237
18 75 170
18 76 2
18 77 259
18 78 163
18 79 62
18 80 54
18 81 168
18 82 129
18 83 79
18 84 138
18 85 64
18 86 176
18 87 89
18 88 127
18 89 89
18 90 264
19 20 84
19 21 119
19 22 238
19 23 259
19 24 72
19 25 94
19 26 189
19 27 120
19 28 87
19 29 251
19 30 204
19 31 138
19 32 147
19 33 215
19 34 266
19 35 227
19 36 162
19 37 117
19 38 194
19 39 110
19 40 193
19 41 74
19 42 247
19 43 233
19 44 141
19 45 4
19 46 213
19 47 189
19 48 24
19 49 233
19 50 3
19 51 259
19 52 236
19 53 263
19 54 243
19 55 149
19 56 125
19 57 239
19 58 109
19 59 160
19 60 100
19 61 240
19 62 155
19 63 40
19 64 233
19 65 260
19 66 145
19 67 89
19 68 208
19 69 6
19 70 169
19 71 86
19 72 249
19 73 253
19 74 32
19 75 264
19 76 222
19 77 45
19 78 79
19 79 236
19 80 40
19 81 236
19 82 70
19 83 243
19 84 21
19 85 109
19 86 123
19 87 230
19 88 67
19 89 149
19 90 92
20 21 1
20 22 80
20 23 203
20 24 2
20 25 196
20 26 93
20 27 166
20 28 87
20 29 155
20 30 238
20 31 248
20 32 60
20 33 165
20 34 188
20 35 235
20 36 71
20 37 28
20 38 158
20 39 174
20 40 148
20 41 215
20 42 164
20 43 178
20 44 246
20 45 241
20 46 2
20 47 29
20 48 98
20 49 162
20 50 88
20 51 238
20 52 94
20 53 238
20 54 46
20 55 133
20 56 54
20 57 27
20 58 253
20 59 156
20 60 232
20 61 141
20 62 46
20 63 157
20 64 73
20 65 212
20 66 56
20 67 216
20 68 55
20 69 237
20 70 224
20 71 10
20 72 41
20 73 72
20 74 19
20 75 230
20 76 189
20 77 120
20 78 1
20 79 9
20 80 61
20 81 101
20 82 202
20 83 162
20 84 112
20 85 245
20 86 224
20 87 194
20 88 86
20 89 185
20 90 16
21 22 51
21 23 189
21 24 58
21 25 183
21 26 117
21 27 1
21 28 224
21 29 92
21 30 20
21 31 189
21 32 253
21 33 223
21 34 117
21 35 196
21 36 256
21 37 34
21 38 251
21 39 113
21 40 46
21 41 179
21 42 128
21 43 54
21 44 170
21 45 19
21 46 6
21 47 233
21 48 98
21 49 247
21 50 215
21 51 95
21 52 14
21 53 137
21 54 258
21 55 0
21 56 245
21 57 259
21 58 103
21 59 218
21 60 225
21 61 175
21 62 269
21 63 77
21 64 193
21 65 146
21 66 236
21 67 261
21 68 32
21 69 113
21 70 50
21 71 10
21 72 164
21 73 180
21 74 259
21 75 95
21 76 153
21 77 161
21 78 167
21 79 108
21 80 112
21 81 178
21 82 69
21 83 56
21 84 70
21 85 190
21 86 84
21 87 238
21 88 27
21 89 145
21 90 254
22 23 137
22 24 134
22 25 251
22 26 71
22 27 237
22 28 240
22 29 69
22 30 48
22 31 187
22 32 102
22 33 199
22 34 69
22 35 170
22 36 220
22 37 124
22 38 173
22 39 245
22 40 166
22 41 138
22 42 88
22 43 130
22 44 119
22 45 207
22 46 112
22 47 216
22 48 145
22 49 216
22 50 120
22 51 30
22 52 10
22 53 10
22 54 244
22 55 42
22 56 228
22 57 66
22 58 121
22 59 97
22 60 207
22 61 80
22 62 180
22 63 249
22 64 155
22 65 199
22 66 218
22 67 10
22 68 190
22 69 160
22 70 251
22 71 33
22 72 75
22 73 102
22 74 238
22 75 47
22 76 207
22 77 244
22 78 8
22 79 16
22 80 120
22 81 230
22 82 227
22 83 256
22 84 248
22 85 29
22 86 16
22 87 48
22 88 52
22 89 233
22 90 84
23 24 48
23 25 226
23 26 98
23 27 142
23 28 119
23 29 135
23 30 86
23 31 158
23 32 81
23 33 118
23 34 151
23 35 109
23 36 88
23 37 69
23 38 85
23 39 139
23 40 56
23 41 69
23 42 229
23 43 102
23 44 63
23 45 73
23 46 75
23 47 267
23 48 191
23 49 70
23 50 92
23 51 254
23 52 109
23 53 207
23 54 16
23 55 102
23 56 26
23 57 21
23 58 73
23 59 17
23 60 132
23 61 265
23 62 208
23 63 110
23 64 64
23 65 258
23 66 57
23 67 170
23 68 202
23 69 100
23 70 19
23 71 138
23 72 149
23 73 240
23 74 29
23 75 202
23 76 149
23 77 94
23 78 208
23 79 216
23 80 138
23 81 3
23 82 170
23 83 234
23 84 52
23 85 115
23 86 59
23 87 206
23 88 97
23 89 215
23 90 108
24 25 154
24 26 110
24 27 108
24 28 151
24 29 236
24 30 119
24 31 93
24 32 18
24 33 34
24 34 252
24 35 250
24 36 144
24 37 187
24 38 134
24 39 59
24 40 152
24 41 8
24 42 261
24 43 234
24 44 56
24 45 148
24 46 71
24 47 95
24 48 66
24 49 52
24 50 38
24 51 191
24 52 181
24 53 69
24 54 166
24 55 182
24 56 185
24 57 120
24 58 264
24 59 121
24 60 77
24 61 140
24 62 90
24 63 14
24 64 207
24 65 216
24 66 121
24 67 245
24 68 253
24 69 65
24 70 150
24 71 60
24 72 41
24 73 196
24 74 175
24 75 108
24 76 55
24 77 23
24 78 240
24 79 105
24 80 146
24 81 63
24 82 29
24 83 5
24 84 0
24 85 261
24 86 101
24 87 238
24 88 113
24 89 110
24 90 187
25 26 28
25 27 238
25 28 25
25 29 106
25 30 121
25 31 41
25 32 255
25 33 263
25 34 76
25 35 21
25 36 177
25 37 2
25 38 76
25 39 193
25 40 42
25 41 187
25 42 230
25 43 255
25 44 4
25 45 258
25 46 164
25 47 49
25 48 36
25 49 72
25 50 108
25 51 236
25 52 13
25 53 249
25 54 109
25 55 152
25 56 54
25 57 179
25 58 32
25 59 97
25 60 121
25 61 40
25 62 212
25 63 7
25 64 245
25 65 155
25 66 178
25 67 214
25 68 161
25 69 133
25 70 241
25 71 255
25 72 78
25 73 6
25 74 183
25 75 7
25 76 121
25 77 114
25 78 258
25 79 63
25 80 168
25 81 91
25 82 95
25 83 242
25 84 159
25 85 0
25 86 190
25 87 201
25 88 135
25 89 27
25 90 55
26 27 74
26 28 229
26 29 23
26 30 48
26 31 87
26 32 60
26 33 64
26 34 79
26 35 206
26 36 141
26 37 34
26 38 139
26 39 263
26 40 14
26 41 87
26 42 182
26 43 109
26 44 51
26 45 35
26 46 255
26 47 190
26 48 126
26 49 185
26 50 235
26 51 262
26 52 65
26 53 257
26 54 230
26 55 60
26 56 146
26 57 175
26 58 64
26 59 218
26 60 191
26 61 206
26 62 87
26 63 100
26 64 29
26 65 167
26 66 124
26 67 206
26 68 137
26 69 68
26 70 19
26 71 255
26 72 10
26 73 107
26 74 43
26 75 110
26 76 232
26 77 185
26 78 9
26 79 7
26 80 143
26 81 83
26 82 166
26 83 117
26 84 107
26 85 164
26 86 226
26 87 185
26 88 28
26 89 130
26 90 230
27 28 0
27 29 11
27 30 191
27 31 187
27 32 81
27 33 27
27 34 165
27 35 122
27 36 89
27 37 221
27 38 248
27 39 232
27 40 92
27 41 171
27 42 260
27 43 162
27 44 103
27 45 151
27 46 208
27 47 45
27 48 260
27 49 263
27 50 226
27 51 23
27 52 238
27 53 0
27 54 244
27 55 180
27 56 226
27 57 0
27 58 119
27 59 103
27 60 267
27 61 248
27 62 104
27 63 211
27 64 202
27 65 69
27 66 265
27 67 130
27 68 126
27 69 38
27 70 38
27 71 121
27 72 130
27 73 250
27 74 30
27 75 201
27 76 99
27 77 175
27 78 54
27 79 99
27 80 221
27 81 130
27 82 140
27 83 137
27 84 236
27 85 140
27 86 49
27 87 205
27 88 8
27 89 187
27 90 86
28 29 19
28 30 4
28 31 51
28 32 36
28 33 246
28 34 230
28 35 252
28 36 231
28 37 125
28 38 255
28 39 33
28 40 114
28 41 88
28 42 187
28 43 261
28 44 48
28 45 11
28 46 118
28 47 134
28 48 258
28 49 33
28 50 172
28 51 131
28 52 77
28 53 147
28 54 148
28 55 155
28 56 267
28 57 74
28 58 218
28 59 256
28 60 50
28 61 265
28 62 182
28 63 258
28 64 263
28 65 22
28 66 242
28 67 24
28 68 70
28 69 256
28 70 77
28 71 266
28 72 124
28 73 118
28 74 90
28 75 131
28 76 162
28 77 187
28 78 111
28 79 120
28 80 100
28 81 126
28 82 153
28 83 39
28 84 223
28 85 138
28 86 241
28 87 131
28 88 118
28 89 236
28 90 86
29 30 94
29 31 217
29 32 261
29 33 238
29 34 104
29 35 7
29 36 167
29 37 108
29 38 0
29 39 85
29 40 218
29 41 244
29 42 147
29 43 72
29 44 55
29 45 180
29 46 40
29 47 122
29 48 89
29 49 161
29 50 250
29 51 89
29 52 81
29 53 55
29 54 127
29 55 168
29 56 53
29 57 150
29 58 127
29 59 195
29 60 161
29 61 246
29 62 6
29 63 157
29 64 167
29 65 37
29 66 170
29 67 151
29 68 109
29 69 7
29 70 222
29 71 96
29 72 150
29 73 8
29 74 205
29 75 143
29 76 251
29 77 85
29 78 150
29 79 118
29 80 259
29 81 150
29 82 180
29 83 267
29 84 12
29 85 6
29 86 79
29 87 37
29 88 2
29 89 182
29 90 224
30 31 15
30 32 112
30 33 211
30 34 154
30 35 169
30 36 24
30 37 247
30 38 265
30 39 183
30 40 204
30 41 178
30 42 49
30 43 250
30 44 107
30 45 191
30 46 241
30 47 128
30 48 147
30 49 37
30 50 182
30 51 256
30 52 2
30 53 139
30 54 235
30 55 178
30 56 209
30 57 26
30 58 41
30 59 31
30 60 256
30 61 190
30 62 45
30 63 160
30 64 175
30 65 55
30 66 225
30 67 182
30 68 42
30 69 63
30 70 248
30 71 39
30 72 131
30 73 21
30 74 138
30 75 5
30 76 27
30 77 164
30 78 3
30 79 40
30 80 231
30 81 200
30 82 13
30 83 39
30 84 100
30 85 189
30 86 21
30 87 70
30 88 181
30 89 108
30 90 226
31 32 91
31 33 95
31 34 201
31 35 191
31 36 205
31 37 127
31 38 188
31 39 125
31 40 112
31 41 222
31 42 172
31 43 97
31 44 44
31 45 6
31 46 175
31 47 229
31 48 166
31 49 20
31 50 160
31 51 226
31 52 43
31 53 235
31 54 261
31 55 224
31 56 183
31 57 116
31 58 2
31 59 3
31 60 2
31 61 176
31 62 7
31 63 268
31 64 65
31 65 38
31 66 11
31 67 267
31 68 11
31 69 152
31 70 237
31 71 197
31 72 147
31 73 214
31 74 48
31 75 246
31 76 57
31 77 153
31 78 90
31 79 105
31 80 74
31 81 210
31 82 226
31 83 175
31 84 43
31 85 243
31 86 169
31 87 95
31 88 123
31 89 247
31 90 56
32 33 125
32 34 114
32 35 65
32 36 58
32 37 134
32 38 1
32 39 149
32 40 19
32 41 234
32 42 261
32 43 140
32 44 142
32 45 21
32 46 226
32 47 67
32 48 195
32 49 204
32 50 68
32 51 119
32 52 70
32 53 37
32 54 238
32 55 27
32 56 231
32 57 34
32 58 222
32 59 108
32 60 269
32 61 244
32 62 4
32 63 138
32 64 168
32 65 235
32 66 186
32 67 94
32 68 17
32 69 127
32 70 158
32 71 156
32 72 30
32 73 86
32 74 231
32 75 217
32 76 202
32 77 242
32 78 68
32 79 113
32 80 71
32 81 138
32 82 228
32 83 243
32 84 118
32 85 144
32 86 108
32 87 136
32 88 64
32 89 199
32 90 246
33 34 15
33 35 170
33 36 37
33 37 172
33 38 78
33 39 121
33 40 204
33 41 147
33 42 185
33 43 28
33 44 173
33 45 75
33 46 203
33 47 126
33 48 136
33 49 156
33 50 229
33 51 265
33 52 221
33 53 44
33 54 92
33 55 64
33 56 146
33 57 153
33 58 136
33 59 85
33 60 208
33 61 76
33 62 245
33 63 0
33 64 19
33 65 76
33 66 74
33 67 144
33 68 77
33 69 48
33 70 20
33 71 93
33 72 242
33 73 201
33 74 185
33 75 268
33 76 44
33 77 59
33 78 124
33 79 187
33 80 196
33 81 153
33 82 233
33 83 95
33 84 216
33 85 71
33 86 57
33 87 208
33 88 102
33 89 210
33 90 25
34 35 229
34 36 68
34 37 55
34 38 252
34 39 84
34 40 149
34 41 39
34 42 149
34 43 85
34 44 1
34 45 177
34 46 124
34 47 219
34 48 205
34 49 196
34 50 232
34 51 63
34 52 213
34 53 240
34 54 105
34 55 214
34 56 52
34 57 36
34 58 170
34 59 181
34 60 65
34 61 249
34 62 209
34 63 24
34 64 198
34 65 91
34 66 12
34 67 20
34 68 181
34 69 196
34 70 192
34 71 7
34 72 157
34 73 129
34 74 151
34 75 237
34 76 78
34 77 57
34 78 70
34 79 228
34 80 13
34 81 206
34 82 3
34 83 18
34 84 256
34 85 31
34 86 9
34 87 158
34 88 89
34 89 239
34 90 110
35 36 32
35 37 49
35 38 52
35 39 58
35 40 84
35 41 42
35 42 230
35 43 155
35 44 6
35 45 259
35 46 2
35 47 108
35 48 82
35 49 217
35 50 207
35 51 18
35 52 262
35 53 55
35 54 42
35 55 243
35 56 113
35 57 9
35 58 51
35 59 58
35 60 248
35 61 17
35 62 241
35 63 82
35 64 96
35 65 96
35 66 142
35 67 258
35 68 166
35 69 136
35 70 210
35 71 105
35 72 230
35 73 110
35 74 251
35 75 209
35 76 250
35 77 131
35 78 209
35 79 118
35 80 50
35 81 82
35 82 138
35 83 124
35 84 233
35 85 112
35 86 203
35 87 15
35 88 222
35 89 195
35 90 177
36 37 176
36 38 216
36 39 53
36 40 253
36 41 116
36 42 129
36 43 38
36 44 28
36 45 86
36 46 2
36 47 169
36 48 65
36 49 112
36 50 31
36 51 189
36 52 177
36 53 262
36 54 137
36 55 249
36 56 58
36 57 233
36 58 245
36 59 8
36 60 165
36 61 105
36 62 162
36 63 222
36 64 1
36 65 178
36 66 120
36 67 7
36 68 198
36 69 122
36 70 19
36 71 148
36 72 212
36 73 221
36 74 267
36 75 179
36 76 33
36 77 267
36 78 190
36 79 247
36 80 91
36 81 217
36 82 8
36 83 167
36 84 61
36 85 15
36 86 133
36 87 21
36 88 4
36 89 229
36 90 188
37 38 238
37 39 235
37 40 236
37 41 199
37 42 110
37 43 209
37 44 90
37 45 29
37 46 122
37 47 19
37 48 6
37 49 4
37 50 7
37 51 234
37 52 148
37 53 211
37 54 85
37 55 132
37 56 165
37 57 43
37 58 34
37 59 82
37 60 245
37 61 104
37 62 222
37 63 265
37 64 96
37 65 93
37 66 137
37 67 186
37 68 55
37 69 266
37 70 10
37 71 218
37 72 218
37 73 220
37 74 238
37 75 56
37 76 245
37 77 233
37 78 85
37 79 93
37 80 136
37 81 218
37 82 19
37 83 83
37 84 156
37 85 204
37 86 139
37 87 132
37 88 224
37 89 178
37 90 23
38 39 209
38 40 98
38 41 187
38 42 62
38 43 181
38 44 32
38 45 12
38 46 195
38 47 55
38 48 268
38 49 104
38 50 194
38 51 221
38 52 75
38 53 130
38 54 98
38 55 95
38 56 23
38 57 163
38 58 168
38 59 99
38 60 211
38 61 184
38 62 100
38 63 198
38 64 37
38 65 19
38 66 27
38 67 126
38 68 41
38 69 59
38 70 211
38 71 192
38 72 18
38 73 193
38 74 155
38 75 112
38 76 264
38 77 113
38 78 145
38 79 186
38 80 104
38 81 226
38 82 135
38 83 204
38 84 174
38 85 232
38 86 119
38 87 15
38 88 102
38 89 81
38 90 16
39 40 200
39 41 132
39 42 151
39 43 37
39 44 39
39 45 6
39 46 145
39 47 51
39 48 211
39 49 215
39 50 27
39 51 41
39 52 58
39 53 100
39 54 81
39 55 152
39 56 111
39 57 189
39 58 3
39 59 126
39 60 106
39 61 264
39 62 203
39 63 249
39 64 249
39 65 161
39 66 8
39 67 82
39 68 97
39 69 31
39 70 51
39 71 2
39 72 209
39 73 254
39 74 209
39 75 91
39 76 19
39 77 221
39 78 156
39 79 162
39 80 168
39 81 146
39 82 53
39 83 155
39 84 17
39 85 219
39 86 9
39 87 116
39 88 77
39 89 146
39 90 198
40 41 95
40 42 19
40 43 259
40 44 14
40 45 125
40 46 163
40 47 173
40 48 73
40 49 120
40 50 220
40 51 22
40 52 57
40 53 25
40 54 192
40 55 261
40 56 119
40 57 67
40 58 34
40 59 174
40 60 207
40 61 63
40 62 152
40 63 267
40 64 18
40 65 145
40 66 172
40 67 128
40 68 166
40 69 246
40 70 23
40 71 262
40 72 13
40 73 220
40 74 41
40 75 35
40 76 19
40 77 25
40 78 13
40 79 207
40 80 147
40 81 80
40 82 255
40 83 66
40 84 134
40 85 57
40 86 131
40 87 70
40 88 252
40 89 218
40 90 136
41 42 0
41 43 31
41 44 262
41 45 178
41 46 253
41 47 85
41 48 228
41 49 181
41 50 194
41 51 55
41 52 123
41 53 92
41 54 65
41 55 217
41 56 121
41 57 14
41 58 134
41 59 98
41 60 218
41 61 208
41 62 218
41 63 33
41 64 235
41 65 250
41 66 106
41 67 238
41 68 67
41 69 161
41 70 153
41 71 110
41 72 230
41 73 236
41 74 164
41 75 214
41 76 21
41 77 217
41 78 170
41 79 6
41 80 165
41 81 228
41 82 190
41 83 149
41 84 145
41 85 102
41 86 125
41 87 4
41 88 251
41 89 171
41 90 48
42 43 32
42 44 182
42 45 110
42 46 95
42 47 242
42 48 12
42 49 25
42 50 221
42 51 212
42 52 263
42 53 61
42 54 18
42 55 40
42 56 104
42 57 115
42 58 164
42 59 48
42 60 95
42 61 139
42 62 156
42 63 174
42 64 195
42 65 197
42 66 94
42 67 225
42 68 252
42 69 32
42 70 120
42 71 194
42 72 1
42 73 11
42 74 85
42 75 75
42 76 127
42 77 66
42 78 66
42 79 174
42 80 225
42 81 182
42 82 9
42 83 82
42 84 153
42 85 127
42 86 97
42 87 120
42 88 227
42 89 139
42 90 121
43 44 244
43 45 176
43 46 190
43 47 90
43 48 202
43 49 167
43 50 30
43 51 85
43 52 236
43 53 131
43 54 52
43 55 72
43 56 135
43 57 255
43 58 137
43 59 219
43 60 62
43 61 25
43 62 123
43 63 166
43 64 139
43 65 226
43 66 139
43 67 102
43 68 182
43 69 160
43 70 125
43 71 174
43 72 239
43 73 126
43 74 224
43 75 124
43 76 172
43 77 223
43 78 138
43 79 263
43 80 188
43 81 16
43 82 150
43 83 194
43 84 207
43 85 6
43 86 248
43 87 232
43 88 241
43 89 252
43 90 32
44 45 96
44 46 183
44 47 213
44 48 144
44 49 97
44 50 1
44 51 204
44 52 185
44 53 58
44 54 228
44 55 125
44 56 15
44 57 120
44 58 114
44 59 98
44 60 133
44 61 78
44 62 181
44 63 10
44 64 164
44 65 3
44 66 127
44 67 193
44 68 168
44 69 27
44 70 238
44 71 89
44 72 145
44 73 116
44 74 89
44 75 267
44 76 14
44 77 101
44 78 113
44 79 78
44 80 96
44 81 17
44 82 74
44 83 259
44 84 134
44 85 135
44 86 10
44 87 120
44 88 134
44 89 266
44 90 144
45 46 155
45 47 82
45 48 186
45 49 145
45 50 12
45 51 231
45 52 191
45 53 269
45 54 14
45 55 97
45 56 207
45 57 154
45 58 170
45 59 10
45 60 123
45 61 128
45 62 76
45 63 245
45 64 135
45 65 210
45 66 214
45 67 129
45 68 9
45 69 212
45 70 81
45 71 125
45 72 87
45 73 5
45 74 204
45 75 130
45 76 200
45 77 141
45 78 129
45 79 171
45 80 116
45 81 202
45 82 153
45 83 175
45 84 117
45 85 50
45 86 3
45 87 151
45 88 63
45 89 10
45 90 216
46 47 124
46 48 256
46 49 19
46 50 31
46 51 80
46 52 25
46 53 75
46 54 27
46 55 46
46 56 239
46 57 246
46 58 40
46 59 41
46 60 26
46 61 86
46 62 140
46 63 211
46 64 47
46 65 203
46 66 104
46 67 83
46 68 246
46 69 151
46 70 18
46 71 191
46 72 144
46 73 27
46 74 58
46 75 206
46 76 232
46 77 28
46 78 78
46 79 213
46 80 77
46 81 171
46 82 258
46 83 126
46 84 233
46 85 151
46 86 196
46 87 269
46 88 186
46 89 221
46 90 33
47 48 185
47 49 134
47 50 227
47 51 146
47 52 105
47 53 141
47 54 45
47 55 213
47 56 91
47 57 32
47 58 20
47 59 250
47 60 227
47 61 27
47 62 235
47 63 161
47 64 228
47 65 65
47 66 132
47 67 220
47 68 208
47 69 66
47 70 14
47 71 214
47 72 267
47 73 53
47 74 147
47 75 172
47 76 87
47 77 14
47 78 217
47 79 40
47 80 73
47 81 55
47 82 140
47 83 198
47 84 152
47 85 268
47 86 205
47 87 177
47 88 218
47 89 151
47 90 160
48 49 46
48 50 23
48 51 114
48 52 202
48 53 185
48 54 150
48 55 216
48 56 66
48 57 58
48 58 119
48 59 98
48 60 179
48 61 104
48 62 166
48 63 141
48 64 58
48 65 108
48 66 169
48 67 143
48 68 113
48 69 119
48 70 79
48 71 88
48 72 160
48 73 114
48 74 142
48 75 11
48 76 71
48 77 164
48 78 239
48 79 72
48 80 160
48 81 42
48 82 112
48 83 175
48 84 139
48 85 99
48 86 256
48 87 202
48 88 268
48 89 9
48 90 137
49 50 126
49 51 112
49 52 241
49 53 124
49 54 207
49 55 75
49 56 17
49 57 13
49 58 102
49 59 247
49 60 54
49 61 149
49 62 48
49 63 253
49 64 142
49 65 154
49 66 241
49 67 85
49 68 28
49 69 206
49 70 211
49 71 236
49 72 3
49 73 162
49 74 75
49 75 118
49 76 269
49 77 152
49 78 128
49 79 104
49 80 126
49 81 236
49 82 63
49 83 92
49 84 13
49 85 125
49 86 51
49 87 63
49 88 127
49 89 172
49 90 25
50 51 106
50 52 238
50 53 16
50 54 223
50 55 200
50 56 27
50 57 156
50 58 158
50 59 197
50 60 71
50 61 154
50 62 85
50 63 123
50 64 96
50 65 46
50 66 187
50 67 8
50 68 106
50 69 200
50 70 238
50 71 30
50 72 12
50 73 42
50 74 14
50 75 56
50 76 178
50 77 180
50 78 132
50 79 112
50 80 47
50 81 57
50 82 73
50 83 115
50 84 92
50 85 82
50 86 196
50 87 73
50 88 235
50 89 118
50 90 116
51 52 44
51 53 165
51 54 234
51 55 8
51 56 120
51 57 166
51 58 131
51 59 29
51 60 82
51 61 247
51 62 204
51 63 74
51 64 266
51 65 90
51 66 107
51 67 100
51 68 114
51 69 264
51 70 211
51 71 233
51 72 49
51 73 81
51 74 31
51 75 58
51 76 46
51 77 77
51 78 90
51 79 231
51 80 113
51 81 265
51 82 45
51 83 240
51 84 214
51 85 72
51 86 121
51 87 5
51 88 110
51 89 155
51 90 108
52 53 205
52 54 129
52 55 266
52 56 78
52 57 39
52 58 165
52 59 97
52 60 83
52 61 53
52 62 231
52 63 240
52 64 94
52 65 109
52 66 211
52 67 112
52 68 221
52 69 15
52 70 177
52 71 43
52 72 222
52 73 255
52 74 15
52 75 258
52 76 158
52 77 38
52 78 229
52 79 104
52 80 184
52 81 180
52 82 189
52 83 244
52 84 8
52 85 157
52 86 85
52 87 47
52 88 255
52 89 10
52 90 148
53 54 261
53 55 224
53 56 88
53 57 165
53 58 128
53 59 108
53 60 17
53 61 59
53 62 33
53 63 164
53 64 243
53 65 118
53 66 166
53 67 169
53 68 0
53 69 254
53 70 26
53 71 49
53 72 107
53 73 88
53 74 246
53 75 130
53 76 182
53 77 39
53 78 39
53 79 196
53 80 190
53 81 232
53 82 166
53 83 108
53 84 249
53 85 173
53 86 156
53 87 215
53 88 168
53 89 92
53 90 159
54 55 143
54 56 247
54 57 158
54 58 85
54 59 194
54 60 28
54 61 245
54 62 126
54 63 88
54 64 78
54 65 104
54 66 14
54 67 198
54 68 108
54 69 200
54 70 165
54 71 59
54 72 150
54 73 54
54 74 60
54 75 58
54 76 260
54 77 137
54 78 41
54 79 85
54 80 85
54 81 0
54 82 180
54 83 15
54 84 67
54 85 145
54 86 107
54 87 214
54 88 116
54 89 48
54 90 220
55 56 86
55 57 143
55 58 235
55 59 264
55 60 167
55 61 51
55 62 1
55 63 113
55 64 134
55 65 125
55 66 208
55 67 206
55 68 203
55 69 108
55 70 78
55 71 20
55 72 157
55 73 63
55 74 226
55 75 167
55 76 2
55 77 183
55 78 17
55 79 259
55 80 32
55 81 212
55 82 28
55 83 196
55 84 0
55 85 76
55 86 204
55 87 108
55 88 21
55 89 126
55 90 6
56 57 146
56 58 85
56 59 227
56 60 239
56 61 223
56 62 175
56 63 42
56 64 142
56 65 154
56 66 268
56 67 176
56 68 58
56 69 208
56 70 26
56 71 182
56 72 89
56 73 244
56 74 158
56 75 31
56 76 179
56 77 217
56 78 14
56 79 81
56 80 235
56 81 164
56 82 61
56 83 51
56 84 54
56 85 84
56 86 97
56 87 174
56 88 221
56 89 2
56 90 142
57 58 228
57 59 137
57 60 103
57 61 6
57 62 134
57 63 117
57 64 21
57 65 190
57 66 162
57 67 242
57 68 212
57 69 66
57 70 228
57 71 221
57 72 22
57 73 180
57 74 177
57 75 227
57 76 20
57 77 41
57 78 142
57 79 87
57 80 97
57 81 149
57 82 74
57 83 172
57 84 128
57 85 37
57 86 244
57 87 226
57 88 85
57 89 24
57 90 214
58 59 142
58 60 149
58 61 68
58 62 148
58 63 198
58 64 141
58 65 180
58 66 245
58 67 198
58 68 171
58 69 108
58 70 213
58 71 135
58 72 190
58 73 130
58 74 248
58 75 108
58 76 233
58 77 222
58 78 49
58 79 135
58 80 254
58 81 136
58 82 92
58 83 269
58 84 154
58 85 27
58 86 45
58 87 85
58 88 4
58 89 68
58 90 222
59 60 218
59 61 122
59 62 268
59 63 81
59 64 127
59 65 61
59 66 34
59 67 31
59 68 73
59 69 9
59 70 57
59 71 95
59 72 116
59 73 8
59 74 42
59 75 131
59 76 170
59 77 228
59 78 30
59 79 65
59 80 47
59 81 40
59 82 207
59 83 49
59 84 235
59 85 258
59 86 8
59 87 42
59 88 41
59 89 33
59 90 232
60 61 230
60 62 167
60 63 41
60 64 251
60 65 5
60 66 80
60 67 36
60 68 196
60 69 62
60 70 229
60 71 94
60 72 95
60 73 168
60 74 247
60 75 235
60 76 200
60 77 48
60 78 178
60 79 167
60 80 183
60 81 119
60 82 175
60 83 129
60 84 183
60 85 206
60 86 99
60 87 32
60 88 5
60 89 128
60 90 117
61 62 24
61 63 235
61 64 140
61 65 68
61 66 9
61 67 55
61 68 35
61 69 208
61 70 108
61 71 185
61 72 150
61 73 25
61 74 42
61 75 123
61 76 100
61 77 254
61 78 3
61 79 71
61 80 227
61 81 159
61 82 91
61 83 29
61 84 14
61 85 144
61 86 115
61 87 231
61 88 109
61 89 172
61 90 262
62 63 107
62 64 260
62 65 242
62 66 135
62 67 203
62 68 224
62 69 243
62 70 217
62 71 80
62 72 179
62 73 226
62 74 183
62 75 39
62 76 119
62 77 198
62 78 12
62 79 149
62 80 229
62 81 65
62 82 131
62 83 209
62 84 135
62 85 50
62 86 134
62 87 211
62 88 176
62 89 67
62 90 127
63 64 115
63 65 36
63 66 182
63 67 70
63 68 96
63 69 83
63 70 55
63 71 260
63 72 14
63 73 204
63 74 53
63 75 222
63 76 259
63 77 169
63 78 255
63 79 108
63 80 92
63 81 79
63 82 111
63 83 204
63 84 56
63 85 135
63 86 188
63 87 32
63 88 188
63 89 117
63 90 75
64 65 18
64 66 52
64 67 189
64 68 13
64 69 115
64 70 148
64 71 223
64 72 240
64 73 1
64 74 235
64 75 203
64 76 76
64 77 33
64 78 121
64 79 121
64 80 198
64 81 42
64 82 167
64 83 67
64 84 161
64 85 107
64 86 264
64 87 96
64 88 108
64 89 214
64 90 120
65 66 246
65 67 127
65 68 146
65 69 152
65 70 102
65 71 194
65 72 89
65 73 15
65 74 199
65 75 206
65 76 227
65 77 224
65 78 243
65 79 66
65 80 132
65 81 190
65 82 60
65 83 10
65 84 40
65 85 59
65 86 52
65 87 164
65 88 42
65 89 203
65 90 48
66 67 12
66 68 152
66 69 116
66 70 104
66 71 255
66 72 222
66 73 3
66 74 176
66 75 234
66 76 218
66 77 97
66 78 112
66 79 139
66 80 82
66 81 170
66 82 191
66 83 67
66 84 58
66 85 44
66 86 11
66 87 97
66 88 3
66 89 266
66 90 174
67 68 53
67 69 216
67 70 124
67 71 236
67 72 233
67 73 211
67 74 268
67 75 218
67 76 101
67 77 80
67 78 27
67 79 29
67 80 74
67 81 195
67 82 47
67 83 7
67 84 172
67 85 179
67 86 241
67 87 189
67 88 74
67 89 138
67 90 219
68 69 205
68 70 251
68 71 127
68 72 179
68 73 45
68 74 76
68 75 103
68 76 251
68 77 15
68 78 227
68 79 116
68 80 158
68 81 171
68 82 78
68 83 261
68 84 71
68 85 14
68 86 185
68 87 65
68 88 232
68 89 92
68 90 126
69 70 246
69 71 155
69 72 169
69 73 197
69 74 129
69 75 98
69 76 268
69 77 57
69 78 193
69 79 193
69 80 124
69 81 98
69 82 140
69 83 246
69 84 54
69 85 123
69 86 178
69 87 87
69 88 173
69 89 100
69 90 158
70 71 241
70 72 201
70 73 94
70 74 26
70 75 125
70 76 62
70 77 142
70 78 145
70 79 132
70 80 234
70 81 38
70 82 123
70 83 231
70 84 29
70 85 71
70 86 207
70 87 171
70 88 238
70 89 237
70 90 116
71 72 29
71 73 223
71 74 1
71 75 227
71 76 106
71 77 168
71 78 36
71 79 225
71 80 111
71 81 89
71 82 267
71 83 205
71 84 11
71 85 219
71 86 2
71 87 186
71 88 43
71 89 238
71 90 235
72 73 103
72 74 237
72 75 153
72 76 8
72 77 158
72 78 152
72 79 39
72 80 254
72 81 73
72 82 71
72 83 71
72 84 86
72 85 55
72 86 22
72 87 201
72 88 153
72 89 55
72 90 9
73 74 38
73 75 19
73 76 182
73 77 218
73 78 133
73 79 20
73 80 255
73 81 94
73 82 198
73 83 260
73 84 149
73 85 220
73 86 86
73 87 108
73 88 186
73 89 251
73 90 93
74 75 56
74 76 21
74 77 46
74 78 45
74 79 264
74 80 8
74 81 203
74 82 5
74 83 141
74 84 15
74 85 217
74 86 14
74 87 110
74 88 253
74 89 117
74 90 249
75 76 110
75 77 171
75 78 219
75 79 243
75 80 51
75 81 101
75 82 264
75 83 147
75 84 103
75 85 121
75 86 214
75 87 228
75 88 76
75 89 195
75 90 61
76 77 37
76 78 185
76 79 96
76 80 105
76 81 219
76 82 121
76 83 211
76 84 126
76 85 239
76 86 68
76 87 24
76 88 131
76 89 265
76 90 27
77 78 1
77 79 128
77 80 248
77 81 124
77 82 262
77 83 231
77 84 187
77 85 50
77 86 269
77 87 0
77 88 171
77 89 196
77 90 235
78 79 139
78 80 60
78 81 71
78 82 267
78 83 4
78 84 135
78 85 159
78 86 153
78 87 15
78 88 97
78 89 232
78 90 103
79 80 265
79 81 24
79 82 18
79 83 45
79 84 31
79 85 75
79 86 225
79 87 83
79 88 77
79 89 208
79 90 42
80 81 145
80 82 107
80 83 102
80 84 136
80 85 220
80 86 41
80 87 13
80 88 256
80 89 48
80 90 220
81 82 100
81 83 139
81 84 255
81 85 202
81 86 254
81 87 250
81 88 143
81 89 130
81 90 190
82 83 48
82 84 249
82 85 203
82 86 74
82 87 208
82 88 156
82 89 163
82 90 225
83 84 184
83 85 253
83 86 259
83 87 130
83 88 94
83 89 245
83 90 101
84 85 230
84 86 173
84 87 145
84 88 43
84 89 105
84 90 60
85 86 223
85 87 72
85 88 191
85 89 77
85 90 47
86 87 101
86 88 191
86 89 228
86 90 50
87 88 99
87 89 261
87 90 144
88 89 59
88 90 1
89 90 158
